RT is False
Default write of storage_offers_DA.csv just to have a file (but constraint should be inactive)
Reading model...
...model read.
creating competitive generators file...
...competitive generators recorded.
Loading data...
.. day-ahead data read.
Compiling instance...
...instance created.
Creating Offer Mitigation (model will solve as dispatch if TRUE)...
NOTE: storage offers will not be mitigated
...storage offer mitigation file created
Converting model to MPEC...
...converted
NOTE: initial MIP solve with only storage competitive to get feasible solution
Solving...

Welcome to IBM(R) ILOG(R) CPLEX(R) Interactive Optimizer 12.9.0.0
  with Simplex, Mixed Integer & Barrier Optimizers
5725-A06 5725-A29 5724-Y48 5724-Y49 5724-Y54 5724-Y55 5655-Y21
Copyright IBM Corp. 1988, 2019.  All Rights Reserved.

Type 'help' for a list of available commands.
Type 'help' followed by a command name for more
information on commands.

CPLEX> Logfile 'cplex.log' closed.
Logfile 'C:\Users\Luke\Desktop\test919\logs\tmptodpq9ju.cplex.log' open.
CPLEX> New value for parallel optimization mode: -1
CPLEX> New value for mixed integer optimality gap tolerance: 0.01
CPLEX> New value for integrality tolerance: 1e-09
CPLEX> New value for feasibility tolerance: 0.01
CPLEX> New value for deterministic time limit in ticks: 75000
CPLEX> Problem 'C:\Users\Luke\Desktop\test919\logs\tmpdtpxv2o7.pyomo.lp' read.
Read time = 0.20 sec. (14.73 ticks)
CPLEX> Problem name         : C:\Users\Luke\Desktop\test919\logs\tmpdtpxv2o7.pyomo.lp
Objective sense      : Maximize
Variables            :   53805  [Nneg: 1,  Box: 22000,  Free: 4464,
                                 Binary: 27340]
Objective nonzeros   :    8970
Linear constraints   :  123205  [Less: 41346,  Greater: 59096,  Equal: 22763]
  Nonzeros           :  291791
  RHS nonzeros       :   67481

Variables            : Min LB: -5000.000        Max UB: 1000000.       
Objective nonzeros   : Min   : 0.1000000        Max   : 722.0000       
Linear constraints   :
  Nonzeros           : Min   : 0.1000000        Max   : 1000000.       
  RHS nonzeros       : Min   : 0.1000000        Max   : 1000000.       
CPLEX> CPXPARAM_Parallel                                -1
CPXPARAM_Simplex_Tolerances_Feasibility          0.01
CPXPARAM_DetTimeLimit                            75000
CPXPARAM_MIP_Tolerances_MIPGap                   0.01
CPXPARAM_MIP_Tolerances_Integrality              1.0000000000000001e-09
Tried aggregator 3 times.
MIP Presolve eliminated 88759 rows and 19053 columns.
MIP Presolve added 3380 rows and 0 columns.
MIP Presolve modified 24763 coefficients.
Aggregator did 12977 substitutions.
Reduced MIP has 24849 rows, 21213 columns, and 70950 nonzeros.
Reduced MIP has 8371 binaries, 0 generals, 0 SOSs, and 0 indicators.
Presolve time = 0.23 sec. (173.71 ticks)
Probing fixed 396 vars, tightened 2799 bounds.
Probing time = 1.41 sec. (877.88 ticks)
Tried aggregator 2 times.
MIP Presolve eliminated 897 rows and 804 columns.
MIP Presolve modified 2182 coefficients.
Aggregator did 42 substitutions.
Reduced MIP has 23910 rows, 20367 columns, and 68206 nonzeros.
Reduced MIP has 7971 binaries, 0 generals, 0 SOSs, and 0 indicators.
Presolve time = 0.09 sec. (73.97 ticks)
Probing time = 0.03 sec. (15.69 ticks)
Clique table members: 6329.
MIP emphasis: balance optimality and feasibility.
MIP search method: dynamic search.
Parallel mode: opportunistic, using up to 24 threads.
Root relaxation solution time = 0.47 sec. (613.68 ticks)

        Nodes                                         Cuts/
   Node  Left     Objective  IInf  Best Integer    Best Bound    ItCnt     Gap

      0     0     2305.4682   871                   2305.4682     6717         
      0     0     2304.4003   680                   Cuts: 842     7079         
      0     0     2304.2827   555                   Cuts: 575     7302         
      0     0     2304.1651   469                   Cuts: 334     7430         
      0     0     2304.1651   447                   Cuts: 107     7465         
      0     0     2304.1651   431                    Cuts: 78     7482         
      0     0     2304.1651   429                    Cuts: 61     7499         
      0     0     2304.1651   427                    Cuts: 41     7505         
      0    15    infeasible                       Flowcuts: 1     7599         
Elapsed time = 9.44 sec. (6596.26 ticks, tree = 0.02 MB, solutions = 0)
    326    53    infeasible                         2297.5207     9877         
    623   173     2246.0967   397                   2297.5207    22599         
    976   363    infeasible                         2297.5207    29595         
   1494   604     2124.1968   370                   2297.5207    47499         
   1966   825   -12762.0025   365                   2297.5207    57512         
   2581  1226   -32543.6159   334                   2297.5207    60687         
   3320  1796     2124.1968   333                   2297.5207    62843         
   3780  2413     2267.3894   309                   2297.5207    67562         
   4255  2665     2297.5413   300                   2297.5207    68476         
   7233  5325     2297.5413   253                   2297.5207    75752         
Elapsed time = 18.88 sec. (9698.58 ticks, tree = 121.73 MB, solutions = 2)
*  7671+ 5585                         2123.7429     2297.5207             8.18%
* 10157  3224      integral     0     2283.3498     2297.5207    76858    0.62%

Clique cuts applied:  40
Implied bound cuts applied:  68
Flow cuts applied:  595
Mixed integer rounding cuts applied:  23
Gomory fractional cuts applied:  54

Root node processing (before b&c):
  Real time             =    8.98 sec. (6578.14 ticks)
Parallel b&c, 24 threads:
  Real time             =   11.11 sec. (4226.10 ticks)
  Sync time (average)   =    0.26 sec.
  Wait time (average)   =    0.00 sec.
                          ------------
Total (root+branch&cut) =   20.09 sec. (10804.24 ticks)

Solution pool: 7 solutions saved.

MIP - Integer optimal, tolerance (0.01/1e-06):  Objective =  2.2833498476e+03
Current MIP best bound =  2.2975210427e+03 (gap = 14.1712, 0.62%)
Solution time =   20.13 sec.  Iterations = 80011  Nodes = 10174 (1247)
Deterministic time = 10804.39 ticks  (536.86 ticks/sec)

CPLEX> Incumbent solution written to file 'C:\Users\Luke\Desktop\test919\logs\tmpfc5mw7s1.cplex.sol'.
CPLEX> NOTE: no warmstart specified for MIP iteration, default behavior is true
NOTE: resolving with all competitive generators using storage-only solution to warmstart
Solving...

Welcome to IBM(R) ILOG(R) CPLEX(R) Interactive Optimizer 12.9.0.0
  with Simplex, Mixed Integer & Barrier Optimizers
5725-A06 5725-A29 5724-Y48 5724-Y49 5724-Y54 5724-Y55 5655-Y21
Copyright IBM Corp. 1988, 2019.  All Rights Reserved.

Type 'help' for a list of available commands.
Type 'help' followed by a command name for more
information on commands.

CPLEX> Logfile 'cplex.log' closed.
Logfile 'C:\Users\Luke\Desktop\test919\logs\tmpqlv93_a8.cplex.log' open.
CPLEX> New value for parallel optimization mode: -1
CPLEX> New value for mixed integer optimality gap tolerance: 0.01
CPLEX> New value for integrality tolerance: 1e-09
CPLEX> New value for feasibility tolerance: 0.01
CPLEX> New value for deterministic time limit in ticks: 75000
CPLEX> Problem 'C:\Users\Luke\Desktop\test919\logs\tmp4hkfjub7.pyomo.lp' read.
Read time = 0.20 sec. (14.75 ticks)
CPLEX> MIP start file 'C:\Users\Luke\Desktop\test919\logs\tmpvp2746hz.cplex.mst' read.
CPLEX> Problem name         : C:\Users\Luke\Desktop\test919\logs\tmp4hkfjub7.pyomo.lp
Objective sense      : Maximize
Variables            :   54525  [Nneg: 1,  Box: 22720,  Free: 4464,
                                 Binary: 27340]
Objective nonzeros   :    9690
Linear constraints   :  123205  [Less: 41346,  Greater: 59096,  Equal: 22763]
  Nonzeros           :  291791
  RHS nonzeros       :   67481

Variables            : Min LB: -5000.000        Max UB: 1000000.       
Objective nonzeros   : Min   : 0.1000000        Max   : 722.0000       
Linear constraints   :
  Nonzeros           : Min   : 0.1000000        Max   : 1000000.       
  RHS nonzeros       : Min   : 0.1000000        Max   : 1000000.       
CPLEX> CPXPARAM_Parallel                                -1
CPXPARAM_Simplex_Tolerances_Feasibility          0.01
CPXPARAM_DetTimeLimit                            75000
CPXPARAM_MIP_Tolerances_MIPGap                   0.01
CPXPARAM_MIP_Tolerances_Integrality              1.0000000000000001e-09
Warning:  No solution found from 1 MIP starts.
Retaining values of one MIP start for possible repair.
Tried aggregator 3 times.
MIP Presolve eliminated 88759 rows and 19773 columns.
MIP Presolve added 3380 rows and 0 columns.
MIP Presolve modified 24763 coefficients.
Aggregator did 12977 substitutions.
Reduced MIP has 24849 rows, 21213 columns, and 70950 nonzeros.
Reduced MIP has 8371 binaries, 0 generals, 0 SOSs, and 0 indicators.
Presolve time = 0.23 sec. (174.07 ticks)
Probing fixed 396 vars, tightened 2799 bounds.
Probing time = 1.42 sec. (877.88 ticks)
Tried aggregator 2 times.
MIP Presolve eliminated 897 rows and 804 columns.
MIP Presolve modified 2182 coefficients.
Aggregator did 42 substitutions.
Reduced MIP has 23910 rows, 20367 columns, and 68206 nonzeros.
Reduced MIP has 7971 binaries, 0 generals, 0 SOSs, and 0 indicators.
Presolve time = 0.11 sec. (73.97 ticks)
Probing time = 0.02 sec. (15.69 ticks)
Clique table members: 6329.
MIP emphasis: balance optimality and feasibility.
MIP search method: dynamic search.
Parallel mode: opportunistic, using up to 24 threads.
Root relaxation solution time = 0.48 sec. (613.68 ticks)

        Nodes                                         Cuts/
   Node  Left     Objective  IInf  Best Integer    Best Bound    ItCnt     Gap

      0     0     2305.4682   871                   2305.4682     6717         
      0     0     2304.4003   680                   Cuts: 842     7079         
      0     0     2304.2827   555                   Cuts: 575     7302         
      0     0     2304.1651   469                   Cuts: 334     7430         
      0     0     2304.1651   447                   Cuts: 107     7465         
      0     0     2304.1651   431                    Cuts: 78     7482         
      0     0     2304.1651   429                    Cuts: 61     7499         
      0     0     2304.1651   427                    Cuts: 41     7505         
Repair heuristic found nothing.
      0    15    infeasible                       Flowcuts: 1     7599         
Elapsed time = 9.59 sec. (6635.10 ticks, tree = 0.02 MB, solutions = 0)
    354    35     2250.8698   408                   2297.5207     8362         
    632   185     2284.7549   408                   2297.5207    22698         
    963   366     2215.4011   386                   2297.5207    32642         
   1438   582     2244.7959   385                   2297.5207    50072         
   1910   877     2222.8227   369                   2297.5207    57268         
   2499  1301     2244.7959   345                   2297.5207    61066         
   3268  2003     2222.8227   318                   2297.5207    63852         
   3802  2619     2213.5140   301                   2297.5207    65815         
   4394  3100     2213.5140   299                   2297.5207    66956         
   7489  5701     2214.7459   139                   2297.5207    71770         
Elapsed time = 18.14 sec. (9738.43 ticks, tree = 74.78 MB, solutions = 0)
*  9233+ 2774                         2244.6918     2297.5207             2.35%
* 10261  2737      integral     0     2272.9430     2297.5207    75254    1.08%

GUB cover cuts applied:  1
Clique cuts applied:  5
Cover cuts applied:  2
Implied bound cuts applied:  41
Flow cuts applied:  90
Mixed integer rounding cuts applied:  69
Gomory fractional cuts applied:  47

Root node processing (before b&c):
  Real time             =    9.16 sec. (6615.77 ticks)
Parallel b&c, 24 threads:
  Real time             =   12.00 sec. (4981.33 ticks)
  Sync time (average)   =    0.24 sec.
  Wait time (average)   =    0.00 sec.
                          ------------
Total (root+branch&cut) =   21.16 sec. (11597.10 ticks)

Solution pool: 6 solutions saved.

MIP - Integer optimal, tolerance (0.01/1e-06):  Objective =  2.2729429753e+03
Current MIP best bound =  2.2954588691e+03 (gap = 22.5159, 0.99%)
Solution time =   21.20 sec.  Iterations = 79867  Nodes = 10343 (1924)
Deterministic time = 11597.25 ticks  (546.96 ticks/sec)

CPLEX> Incumbent solution written to file 'C:\Users\Luke\Desktop\test919\logs\tmpevll9bwr.cplex.sol'.
CPLEX> Exporting results... 
